37
69
31
0 4
0 5
0 6
1 7
1 8
1 10
1 14
1 22
1 24
1 32
2 3
2 9
2 28
3 9
3 18
3 28
4 5
4 6
4 25
4 26
4 27
5 6
6 20
7 8
7 10
7 13
8 10
8 29
8 35
9 12
9 18
9 23
9 34
11 14
11 24
11 28
12 15
12 20
12 34
14 15
14 16
14 24
14 28
15 16
15 20
15 34
17 19
17 21
17 27
17 31
18 28
19 21
19 27
19 31
20 22
20 25
20 34
21 27
21 31
22 32
24 28
25 26
25 27
27 31
29 30
29 35
31 35
32 33
32 34
0 1
2
3 4
5
6
7
8 9
10
11
12
13
14 15
16
17
18
19
20 21
22
23
24
25
26
27 28
29
30
31
32
33
34
35
36
